language ESSENCE' 1.0
$ minion Nodes: 1
$ minion TotalTime: 0.000549
$ Savile Row TotalTime: 0.227
letting pain_tuple1_tuple3 be [[true;int(3)];int(1)]
letting pain_tuple1_tuple4 be [[4;int(3)];int(1)]
letting pain_tuple1_tuple1 be [[true;int(3)];int(1)]
letting pain_tuple1_tuple2 be [[false;int(3)];int(1)]
